HUN,8,6,624
0,30,5,12,1,1,3,14,2,1,4,23
5,14,0,9,2,14,3,23,1,27,4,21
1,13,2,7,3,22,0,28,5,6,4,14
5,28,0,2,1,10,4,2,3,9,2,20
5,1,2,1,0,28,4,2,3,4,1,11
5,10,3,4,2,22,1,25,0,20,4,24
5,18,4,17,2,4,0,7,3,26,1,19
4,26,0,20,5,22,3,25,1,15,2,29
